/*********************************************
 * OPL 12.6.0.0 Data
 * Author: Adrian Rodriguez Bazaga, Pau Rodriguez Esmerats
 * Creation Date: 06/12/2017 at 23:02:57
 *********************************************/

nNurses=148;
maxConsec=2;
maxPresence=7;
maxHours=5;
minHours=1;
hours=24;
demand= [19 27 41 38 27 41 38 28 34 21 2 2 4 2 4 1 4 0 2 0 21 43 22 28  ];
